
Gurobi 9.5.2 (mac64[arm]) logging started Thu Apr 27 19:52:48 2023

Set parameter LogFile to value "Java/output/iterative_model_full/scenario_seed_1_nJob_50_machineCount_1/mip_increment_2/log.txt"
Gurobi Optimizer version 9.5.2 build v9.5.2rc0 (mac64[arm])
Thread count: 8 physical cores, 8 logical processors, using up to 8 threads
Optimize a model with 1292 rows, 9696 columns and 64382 nonzeros
Model fingerprint: 0xe537e9d6
Variable types: 0 continuous, 9696 integer (9696 binary)
Coefficient statistics:
  Matrix range     [1e+00, 4e+02]
  Objective range  [5e+01, 2e+07]
  Bounds range     [1e+00, 1e+00]
  RHS range        [1e+00, 1e+00]
Found heuristic solution: objective 7.162872e+07
Presolve removed 32 rows and 517 columns
Presolve time: 0.10s
Presolved: 1260 rows, 9179 columns, 59339 nonzeros
Variable types: 0 continuous, 9179 integer (9171 binary)
Found heuristic solution: objective 4.709512e+07

Root relaxation: objective 1.349879e+04, 2361 iterations, 0.09 seconds (0.18 work units)

    Nodes    |    Current Node    |     Objective Bounds      |     Work
 Expl Unexpl |  Obj  Depth IntInf | Incumbent    BestBd   Gap | It/Node Time

     0     0 13498.7931    0  113 4.7095e+07 13498.7931   100%     -    0s
H    0     0                    2.452149e+07 13498.7931   100%     -    0s
H    0     0                    2.452075e+07 13498.7931   100%     -    0s
H    0     0                    2.201915e+07 13498.7931   100%     -    0s
H    0     0                    5154864.0000 13583.2014   100%     -    0s
H    0     0                    5154640.0000 13583.2014   100%     -    0s
     0     0 13583.2014    0  189 5154640.00 13583.2014   100%     -    0s
H    0     0                    2650608.0000 13583.2014  99.5%     -    0s
     0     0 13585.2588    0  187 2650608.00 13585.2588  99.5%     -    0s
     0     0 13585.2606    0  187 2650608.00 13585.2606  99.5%     -    0s
H    0     0                    15728.000000 13597.6757  13.5%     -    0s
     0     0 13597.6757    0  194 15728.0000 13597.6757  13.5%     -    0s
H    0     0                    15600.000000 13597.6757  12.8%     -    0s
H    0     0                    15376.000000 13597.6757  11.6%     -    0s
     0     0 13600.0864    0  184 15376.0000 13600.0864  11.5%     -    0s
     0     0 13600.1256    0  186 15376.0000 13600.1256  11.5%     -    0s
H    0     0                    15216.000000 13600.1256  10.6%     -    0s
     0     0 13600.1256    0  188 15216.0000 13600.1256  10.6%     -    0s
H    0     0                    15152.000000 13600.1256  10.2%     -    0s
     0     0 13645.7814    0  209 15152.0000 13645.7814  9.94%     -    0s
     0     0 13645.7814    0  114 15152.0000 13645.7814  9.94%     -    1s
H    0     0                    15120.000000 13645.7814  9.75%     -    1s
H    0     0                    14832.000000 13645.7814  8.00%     -    1s
     0     0 13645.7814    0  207 14832.0000 13645.7814  8.00%     -    1s
H    0     0                    14800.000000 13645.7814  7.80%     -    1s
     0     0 13657.8764    0  187 14800.0000 13657.8764  7.72%     -    1s
     0     0 13658.5248    0  186 14800.0000 13658.5248  7.71%     -    1s
     0     0 13658.6504    0  183 14800.0000 13658.6504  7.71%     -    1s
     0     0 13659.6373    0  182 14800.0000 13659.6373  7.71%     -    1s
     0     0 13659.6621    0  185 14800.0000 13659.6621  7.70%     -    1s
     0     0 13685.9421    0  240 14800.0000 13685.9421  7.53%     -    1s
     0     0 13688.8418    0  243 14800.0000 13688.8418  7.51%     -    1s
     0     0 13689.4828    0  249 14800.0000 13689.4828  7.50%     -    1s
     0     0 13689.5049    0  252 14800.0000 13689.5049  7.50%     -    1s
     0     0 13707.8709    0  262 14800.0000 13707.8709  7.38%     -    1s
     0     0 13711.7863    0  262 14800.0000 13711.7863  7.35%     -    1s
     0     0 13713.1965    0  264 14800.0000 13713.1965  7.34%     -    1s
     0     0 13715.6245    0  272 14800.0000 13715.6245  7.33%     -    1s
     0     0 13715.6415    0  275 14800.0000 13715.6415  7.33%     -    1s
     0     0 13738.5258    0  297 14800.0000 13738.5258  7.17%     -    1s
H    0     0                    14640.000000 13738.5258  6.16%     -    1s
     0     0 13747.1963    0  294 14640.0000 13747.1963  6.10%     -    1s
H    0     0                    14448.000000 13747.1963  4.85%     -    1s
     0     0 13748.9084    0  313 14448.0000 13748.9084  4.84%     -    1s
     0     0 13749.2559    0  315 14448.0000 13749.2559  4.84%     -    1s
     0     0 13749.2969    0  320 14448.0000 13749.2969  4.84%     -    1s
     0     0 13762.2326    0  321 14448.0000 13762.2326  4.75%     -    1s
     0     0 13765.5550    0  319 14448.0000 13765.5550  4.72%     -    1s
     0     0 13766.5520    0  325 14448.0000 13766.5520  4.72%     -    1s
     0     0 13767.1130    0  330 14448.0000 13767.1130  4.71%     -    1s
     0     0 13767.3986    0  335 14448.0000 13767.3986  4.71%     -    1s
     0     0 13776.6825    0  368 14448.0000 13776.6825  4.65%     -    1s
     0     0 13781.8295    0  369 14448.0000 13781.8295  4.61%     -    1s
     0     0 13782.8439    0  384 14448.0000 13782.8439  4.60%     -    1s
     0     0 13783.3728    0  380 14448.0000 13783.3728  4.60%     -    1s
     0     0 13784.1922    0  380 14448.0000 13784.1922  4.59%     -    1s
     0     0 13784.5148    0  390 14448.0000 13784.5148  4.59%     -    1s
     0     0 13794.0844    0  409 14448.0000 13794.0844  4.53%     -    2s
     0     0 13796.6455    0  405 14448.0000 13796.6455  4.51%     -    2s
     0     0 13797.5080    0  409 14448.0000 13797.5080  4.50%     -    2s
     0     0 13797.9449    0  417 14448.0000 13797.9449  4.50%     -    2s
     0     0 13798.0937    0  422 14448.0000 13798.0937  4.50%     -    2s
     0     0 13805.2242    0  420 14448.0000 13805.2242  4.45%     -    2s
     0     0 13807.5400    0  395 14448.0000 13807.5400  4.43%     -    2s
     0     0 13808.6365    0  412 14448.0000 13808.6365  4.43%     -    2s
     0     0 13808.8727    0  416 14448.0000 13808.8727  4.42%     -    2s
     0     0 13816.7820    0  400 14448.0000 13816.7820  4.37%     -    2s
     0     0 13819.2796    0  399 14448.0000 13819.2796  4.35%     -    2s
     0     0 13820.0225    0  403 14448.0000 13820.0225  4.35%     -    2s
     0     0 13820.1531    0  403 14448.0000 13820.1531  4.35%     -    2s
     0     0 13824.3973    0  424 14448.0000 13824.3973  4.32%     -    2s
     0     0 13828.4865    0  425 14448.0000 13828.4865  4.29%     -    2s
     0     0 13829.0061    0  442 14448.0000 13829.0061  4.28%     -    2s
     0     0 13834.3189    0  424 14448.0000 13834.3189  4.25%     -    2s
     0     0 13836.0773    0  433 14448.0000 13836.0773  4.24%     -    2s
     0     0 13837.0295    0  430 14448.0000 13837.0295  4.23%     -    2s
     0     0 13837.7523    0  429 14448.0000 13837.7523  4.22%     -    2s
     0     0 13838.2169    0  454 14448.0000 13838.2169  4.22%     -    2s
     0     0 13843.6060    0  463 14448.0000 13843.6060  4.18%     -    3s
     0     0 13845.5930    0  443 14448.0000 13845.5930  4.17%     -    3s
     0     0 13846.7097    0  447 14448.0000 13846.7097  4.16%     -    3s
     0     0 13846.9330    0  449 14448.0000 13846.9330  4.16%     -    3s
     0     0 13853.0811    0  426 14448.0000 13853.0811  4.12%     -    3s
     0     0 13855.4664    0  451 14448.0000 13855.4664  4.10%     -    3s
     0     0 13856.0633    0  454 14448.0000 13856.0633  4.10%     -    3s
     0     0 13860.5814    0  466 14448.0000 13860.5814  4.07%     -    3s
     0     0 13861.8144    0  463 14448.0000 13861.8144  4.06%     -    3s
     0     0 13863.0033    0  471 14448.0000 13863.0033  4.05%     -    3s
     0     0 13863.3663    0  472 14448.0000 13863.3663  4.05%     -    3s
     0     0 13866.6683    0  465 14448.0000 13866.6683  4.02%     -    3s
     0     0 13866.6683    0  462 14448.0000 13866.6683  4.02%     -    3s
     0     2 13866.7498    0  456 14448.0000 13866.7498  4.02%     -    4s
    47    58 13972.8615    6  353 14448.0000 13876.7853  3.95%   753    5s
H   70    75                    14416.000000 13876.7853  3.74%   748    5s
H  102   105                    14384.000000 13876.7853  3.53%   748    6s
H  142   149                    14320.000000 13876.7853  3.10%   702    6s
   489   366 13979.4012   13  347 14320.0000 13877.4373  3.09%   528   11s
H 1065   675                    14288.000000 13877.9167  2.87%   443   14s
  1223   760 14006.3857   10  390 14288.0000 13877.9167  2.87%   434   15s

Cutting planes:
  Gomory: 2
  Cover: 5
  Clique: 92
  MIR: 265
  StrongCG: 119
  GUB cover: 89
  Zero half: 17
  Mod-K: 1
  RLT: 2

Explored 1417 nodes (642559 simplex iterations) in 16.00 seconds (43.13 work units)
Thread count was 8 (of 8 available processors)

Solution count 10: 14288 14320 14384 ... 15152

Time limit reached
Best objective 1.428800000000e+04, best bound 1.388800000000e+04, gap 2.7996%

Gurobi 9.5.2 (mac64[arm]) logging started Thu Apr 27 19:53:04 2023

Set parameter LogFile to value "Java/output/iterative_model_full/scenario_seed_1_nJob_50_machineCount_1/mip_increment_2/log.txt"
Gurobi Optimizer version 9.5.2 build v9.5.2rc0 (mac64[arm])
Thread count: 8 physical cores, 8 logical processors, using up to 8 threads
Optimize a model with 1298 rows, 7930 columns and 57964 nonzeros
Model fingerprint: 0x162c63e6
Variable types: 0 continuous, 7930 integer (7930 binary)
Coefficient statistics:
  Matrix range     [1e+00, 4e+02]
  Objective range  [4e+02, 3e+06]
  Bounds range     [1e+00, 1e+00]
  RHS range        [1e+00, 1e+00]
Presolve removed 305 rows and 696 columns
Presolve time: 0.08s
Presolved: 993 rows, 7234 columns, 50995 nonzeros
Variable types: 0 continuous, 7234 integer (7222 binary)

Root relaxation: objective 1.074953e+04, 1869 iterations, 0.05 seconds (0.09 work units)

    Nodes    |    Current Node    |     Objective Bounds      |     Work
 Expl Unexpl |  Obj  Depth IntInf | Incumbent    BestBd   Gap | It/Node Time

     0     0 10749.5272    0  105          - 10749.5272      -     -    0s
     0     0 10839.5784    0  182          - 10839.5784      -     -    0s
     0     0 10923.8184    0  176          - 10923.8184      -     -    0s
     0     0 10923.8184    0  178          - 10923.8184      -     -    0s
     0     0 11000.6124    0  208          - 11000.6124      -     -    0s
     0     0 11014.9225    0  211          - 11014.9225      -     -    0s
     0     0 11019.5927    0  215          - 11019.5927      -     -    0s
     0     0 11021.0736    0  226          - 11021.0736      -     -    0s
     0     0 11021.3010    0  228          - 11021.3010      -     -    0s
     0     0 11021.3520    0  225          - 11021.3520      -     -    0s
     0     0 11350.5465    0  241          - 11350.5465      -     -    0s
H    0     0                    1605668.0000 11473.2602  99.3%     -    0s
H    0     0                    1605500.0000 11473.2602  99.3%     -    0s
     0     0 11473.2602    0  241 1605500.00 11473.2602  99.3%     -    0s
     0     0 11482.8480    0  243 1605500.00 11482.8480  99.3%     -    0s
     0     0 11485.6278    0  244 1605500.00 11485.6278  99.3%     -    0s
     0     0 11485.6278    0  249 1605500.00 11485.6278  99.3%     -    0s
H    0     0                    176700.00000 12656.8671  92.8%     -    1s
H    0     0                    174068.00000 12656.8671  92.7%     -    1s
     0     0 12656.9874    0  263 174068.000 12656.9874  92.7%     -    1s
H    0     0                    153252.00000 12656.9874  91.7%     -    1s
H    0     0                    138156.00000 12757.0986  90.8%     -    1s
     0     0 12757.0986    0  290 138156.000 12757.0986  90.8%     -    1s
     0     0 12777.5389    0  296 138156.000 12777.5389  90.8%     -    1s
     0     0 12777.6582    0  299 138156.000 12777.6582  90.8%     -    1s
     0     0 13477.0881    0  282 138156.000 13477.0881  90.2%     -    1s
     0     0 13477.0881    0  124 138156.000 13477.0881  90.2%     -    1s
     0     0 13477.0881    0  212 138156.000 13477.0881  90.2%     -    1s
H    0     0                    134932.00000 13477.0881  90.0%     -    1s
     0     0 13477.0881    0  267 134932.000 13477.0881  90.0%     -    1s
     0     0 13661.3686    0  255 134932.000 13661.3686  89.9%     -    1s
     0     0 13682.2016    0  268 134932.000 13682.2016  89.9%     -    1s
     0     0 13683.1942    0  272 134932.000 13683.1942  89.9%     -    1s
     0     0 15291.3950    0  305 134932.000 15291.3950  88.7%     -    2s
H    0     0                    134924.00000 15291.3950  88.7%     -    2s
     0     0 15741.2772    0  277 134924.000 15741.2772  88.3%     -    2s
     0     0 15817.0678    0  283 134924.000 15817.0678  88.3%     -    2s
H    0     0                    130780.00000 15817.0678  87.9%     -    2s
     0     0 15823.0976    0  281 130780.000 15823.0976  87.9%     -    2s
     0     0 15823.1642    0  282 130780.000 15823.1642  87.9%     -    2s
H    0     0                    130732.00000 15823.1642  87.9%     -    2s
H    0     0                    130716.00000 15823.1642  87.9%     -    2s
H    0     0                    127532.00000 15823.1642  87.6%     -    2s
H    0     0                    124556.00000 15823.1642  87.3%     -    2s
H    0     0                    124548.00000 15823.1642  87.3%     -    2s
H    0     0                    124476.00000 15823.1642  87.3%     -    2s
H    0     0                    124172.00000 15823.1642  87.3%     -    2s
H    0     0                    124156.00000 15823.1642  87.3%     -    2s
H    0     0                    124100.00000 15823.1642  87.2%     -    2s
     0     0 24723.8851    0  270 124100.000 24723.8851  80.1%     -    2s
H    0     0                    101092.00000 24723.8851  75.5%     -    2s
     0     0 30145.1600    0  292 101092.000 30145.1600  70.2%     -    2s
     0     0 30296.3466    0  286 101092.000 30296.3466  70.0%     -    2s
     0     0 30301.0284    0  292 101092.000 30301.0284  70.0%     -    2s
     0     0 36827.9801    0  298 101092.000 36827.9801  63.6%     -    2s
     0     0 38668.6674    0  302 101092.000 38668.6674  61.7%     -    2s
     0     0 39103.5469    0  313 101092.000 39103.5469  61.3%     -    2s
     0     0 39121.8022    0  316 101092.000 39121.8022  61.3%     -    2s
     0     0 42147.8885    0  278 101092.000 42147.8885  58.3%     -    2s
     0     0 43181.6900    0  274 101092.000 43181.6900  57.3%     -    3s
     0     0 43596.0271    0  271 101092.000 43596.0271  56.9%     -    3s
     0     0 43674.2986    0  282 101092.000 43674.2986  56.8%     -    3s
     0     0 43676.5075    0  296 101092.000 43676.5075  56.8%     -    3s
     0     0 47056.6826    0  306 101092.000 47056.6826  53.5%     -    3s
     0     0 47564.1147    0  296 101092.000 47564.1147  52.9%     -    3s
     0     0 47569.1586    0  307 101092.000 47569.1586  52.9%     -    3s
     0     0 49804.3420    0  266 101092.000 49804.3420  50.7%     -    3s
H    0     0                    98916.000000 49804.3420  49.6%     -    3s
     0     0 50180.0947    0  264 98916.0000 50180.0947  49.3%     -    3s
     0     0 50183.9338    0  274 98916.0000 50183.9338  49.3%     -    3s
     0     0 51923.2482    0  296 98916.0000 51923.2482  47.5%     -    3s
     0     0 52509.9608    0  276 98916.0000 52509.9608  46.9%     -    3s
     0     0 52517.3300    0  302 98916.0000 52517.3300  46.9%     -    3s
     0     0 53285.8667    0  268 98916.0000 53285.8667  46.1%     -    3s
H    0     0                    96180.000000 53285.8667  44.6%     -    3s
     0     0 53361.3341    0  271 96180.0000 53361.3341  44.5%     -    3s
     0     0 53488.0495    0  299 96180.0000 53488.0495  44.4%     -    3s
     0     0 53523.3284    0  297 96180.0000 53523.3284  44.4%     -    3s
     0     0 55474.8518    0  288 96180.0000 55474.8518  42.3%     -    3s
     0     0 55907.2567    0  326 96180.0000 55907.2567  41.9%     -    3s
     0     0 55927.1398    0  308 96180.0000 55927.1398  41.9%     -    3s
     0     0 57221.5527    0  334 96180.0000 57221.5527  40.5%     -    4s
H    0     0                    95604.000000 57221.5527  40.1%     -    4s
H    0     0                    93844.000000 57221.5527  39.0%     -    4s
     0     0 57266.3081    0  344 93844.0000 57266.3081  39.0%     -    4s
H    0     0                    93804.000000 57266.3081  39.0%     -    4s
     0     0 58841.2756    0  341 93804.0000 58841.2756  37.3%     -    4s
H    0     0                    89148.000000 58841.2756  34.0%     -    4s
     0     0 59040.1266    0  339 89148.0000 59040.1266  33.8%     -    4s
     0     0 59076.1619    0  363 89148.0000 59076.1619  33.7%     -    4s
     0     0 59618.7929    0  342 89148.0000 59618.7929  33.1%     -    4s
H    0     0                    89140.000000 59618.7929  33.1%     -    4s
     0     0 59736.6644    0  354 89140.0000 59736.6644  33.0%     -    4s
     0     0 59840.9784    0  348 89140.0000 59840.9784  32.9%     -    4s
     0     0 59847.6302    0  354 89140.0000 59847.6302  32.9%     -    4s
     0     0 60184.2130    0  319 89140.0000 60184.2130  32.5%     -    4s
     0     0 60184.2130    0  309 89140.0000 60184.2130  32.5%     -    4s
     0     2 60240.3728    0  297 89140.0000 60240.3728  32.4%     -    5s
H   30    32                    72788.000000 61223.8652  15.9%   783    5s
H   34    32                    72172.000000 61223.8652  15.2%   781    5s
H   68    49                    72156.000000 61223.8652  15.2%   554    6s
H   69    49                    67884.000000 61223.8652  9.81%   548    6s
H  115    55                    67860.000000 61856.5023  8.85%   538    6s
H  116    55                    67812.000000 61856.5023  8.78%   539    6s
H  119    55                    67668.000000 61856.5023  8.59%   538    6s

Cutting planes:
  Gomory: 6
  Cover: 33
  Clique: 136
  MIR: 257
  StrongCG: 160
  GUB cover: 215
  Inf proof: 1
  Zero half: 41
  RLT: 13
  Relax-and-lift: 1

Explored 606 nodes (256872 simplex iterations) in 9.15 seconds (20.17 work units)
Thread count was 8 (of 8 available processors)

Solution count 10: 67668 67812 67860 ... 93804

Optimal solution found (tolerance 1.00e-04)
Best objective 6.766800000000e+04, best bound 6.766800000000e+04, gap 0.0000%

Gurobi 9.5.2 (mac64[arm]) logging started Thu Apr 27 19:53:14 2023

Set parameter LogFile to value "Java/output/iterative_model_full/scenario_seed_1_nJob_50_machineCount_1/mip_increment_2/log.txt"
Gurobi Optimizer version 9.5.2 build v9.5.2rc0 (mac64[arm])
Thread count: 8 physical cores, 8 logical processors, using up to 8 threads
Optimize a model with 1304 rows, 4694 columns and 34448 nonzeros
Model fingerprint: 0xfdf8c333
Variable types: 0 continuous, 4694 integer (4694 binary)
Coefficient statistics:
  Matrix range     [1e+00, 4e+02]
  Objective range  [2e+02, 3e+05]
  Bounds range     [1e+00, 1e+00]
  RHS range        [1e+00, 1e+00]
Presolve removed 711 rows and 451 columns
Presolve time: 0.04s
Presolved: 593 rows, 4243 columns, 30032 nonzeros
Variable types: 0 continuous, 4243 integer (4231 binary)

Root relaxation: objective 6.346459e+04, 2746 iterations, 0.08 seconds (0.13 work units)

    Nodes    |    Current Node    |     Objective Bounds      |     Work
 Expl Unexpl |  Obj  Depth IntInf | Incumbent    BestBd   Gap | It/Node Time

     0     0 63464.5934    0  128          - 63464.5934      -     -    0s
H    0     0                    372764.00000 63464.5934  83.0%     -    0s
H    0     0                    360588.00000 63464.5934  82.4%     -    0s
H    0     0                    338328.00000 63464.5934  81.2%     -    0s
     0     0 64096.6973    0  184 338328.000 64096.6973  81.1%     -    0s
H    0     0                    223784.00000 64615.0146  71.1%     -    0s
H    0     0                    215564.00000 64615.0146  70.0%     -    0s
     0     0 64615.0146    0  185 215564.000 64615.0146  70.0%     -    0s
     0     0 64615.0146    0  186 215564.000 64615.0146  70.0%     -    0s
     0     0 64969.7366    0  229 215564.000 64969.7366  69.9%     -    0s
H    0     0                    213122.00000 64969.7366  69.5%     -    0s
H    0     0                    211556.00000 64969.7366  69.3%     -    0s
H    0     0                    207034.00000 64969.7366  68.6%     -    0s
     0     0 64984.2032    0  239 207034.000 64984.2032  68.6%     -    0s
     0     0 64989.4411    0  241 207034.000 64989.4411  68.6%     -    0s
     0     0 64989.4411    0  244 207034.000 64989.4411  68.6%     -    0s
H    0     0                    166540.00000 65733.7405  60.5%     -    0s
H    0     0                    151758.00000 65733.7405  56.7%     -    0s
H    0     0                    145124.00000 65733.7405  54.7%     -    0s
     0     0 65733.7405    0  249 145124.000 65733.7405  54.7%     -    0s
     0     0 65734.6246    0  228 145124.000 65734.6246  54.7%     -    0s
H    0     0                    142720.00000 65734.6246  53.9%     -    0s
H    0     0                    141076.00000 65734.6246  53.4%     -    0s
H    0     0                    131652.00000 66393.8299  49.6%     -    1s
     0     0 66393.8299    0  292 131652.000 66393.8299  49.6%     -    1s
H    0     0                    121440.00000 66393.8299  45.3%     -    1s
H    0     0                    120598.00000 66393.8299  44.9%     -    1s
     0     0 66479.9660    0  298 120598.000 66479.9660  44.9%     -    1s
     0     0 66496.7655    0  299 120598.000 66496.7655  44.9%     -    1s
     0     0 66497.1749    0  302 120598.000 66497.1749  44.9%     -    1s
     0     0 66802.6519    0  302 120598.000 66802.6519  44.6%     -    1s
H    0     0                    119838.00000 66802.6519  44.3%     -    1s
     0     0 66860.6873    0  310 119838.000 66860.6873  44.2%     -    1s
     0     0 66869.1841    0  320 119838.000 66869.1841  44.2%     -    1s
     0     0 66870.4939    0  323 119838.000 66870.4939  44.2%     -    1s
H    0     0                    107276.00000 67230.6771  37.3%     -    1s
     0     0 67230.6771    0  323 107276.000 67230.6771  37.3%     -    1s
H    0     0                    104752.00000 67230.6771  35.8%     -    1s
     0     0 67377.0865    0  315 104752.000 67377.0865  35.7%     -    1s
     0     0 67384.9616    0  329 104752.000 67384.9616  35.7%     -    1s
     0     0 67392.3414    0  324 104752.000 67392.3414  35.7%     -    1s
     0     0 67398.5775    0  326 104752.000 67398.5775  35.7%     -    1s
     0     0 67398.5775    0  326 104752.000 67398.5775  35.7%     -    1s
     0     0 67755.1591    0  303 104752.000 67755.1591  35.3%     -    1s
H    0     0                    102096.00000 67755.1591  33.6%     -    1s
     0     0 67807.6066    0  329 102096.000 67807.6066  33.6%     -    1s
     0     0 67815.3944    0  336 102096.000 67815.3944  33.6%     -    1s
     0     0 67817.1107    0  334 102096.000 67817.1107  33.6%     -    1s
     0     0 68510.9354    0  327 102096.000 68510.9354  32.9%     -    1s
     0     0 68690.7345    0  354 102096.000 68690.7345  32.7%     -    1s
     0     0 68733.8865    0  362 102096.000 68733.8865  32.7%     -    1s
     0     0 68735.8670    0  361 102096.000 68735.8670  32.7%     -    1s
     0     0 69930.0226    0  328 102096.000 69930.0226  31.5%     -    1s
H    0     0                    100546.00000 69930.0226  30.4%     -    1s
     0     0 70131.9850    0  342 100546.000 70131.9850  30.2%     -    1s
     0     0 70187.4898    0  350 100546.000 70187.4898  30.2%     -    1s
     0     0 70204.4329    0  349 100546.000 70204.4329  30.2%     -    1s
     0     0 70207.2247    0  357 100546.000 70207.2247  30.2%     -    1s
     0     0 71232.5894    0  341 100546.000 71232.5894  29.2%     -    1s
     0     0 71328.3906    0  342 100546.000 71328.3906  29.1%     -    1s
     0     0 71362.9981    0  356 100546.000 71362.9981  29.0%     -    1s
     0     0 71372.5575    0  365 100546.000 71372.5575  29.0%     -    1s
     0     0 71375.7045    0  364 100546.000 71375.7045  29.0%     -    1s
     0     0 72452.3120    0  350 100546.000 72452.3120  27.9%     -    2s
     0     0 72597.9946    0  339 100546.000 72597.9946  27.8%     -    2s
     0     0 72656.8787    0  357 100546.000 72656.8787  27.7%     -    2s
H    0     0                    94332.000000 72672.4581  23.0%     -    2s
     0     0 72672.4581    0  354 94332.0000 72672.4581  23.0%     -    2s
     0     0 72680.9810    0  365 94332.0000 72680.9810  23.0%     -    2s
     0     0 72682.6756    0  361 94332.0000 72682.6756  23.0%     -    2s
     0     0 73608.0685    0  343 94332.0000 73608.0685  22.0%     -    2s
     0     0 73791.2070    0  351 94332.0000 73791.2070  21.8%     -    2s
     0     0 73807.2002    0  352 94332.0000 73807.2002  21.8%     -    2s
     0     0 73808.7019    0  347 94332.0000 73808.7019  21.8%     -    2s
H    0     0                    91472.000000 75377.7084  17.6%     -    2s
     0     0 75377.7084    0  346 91472.0000 75377.7084  17.6%     -    2s
     0     0 75546.2323    0  363 91472.0000 75546.2323  17.4%     -    2s
     0     0 75645.7496    0  377 91472.0000 75645.7496  17.3%     -    2s
     0     0 75675.2674    0  375 91472.0000 75675.2674  17.3%     -    2s
     0     0 75678.9783    0  375 91472.0000 75678.9783  17.3%     -    2s
     0     0 76177.1163    0  366 91472.0000 76177.1163  16.7%     -    2s
     0     0 76353.9185    0  370 91472.0000 76353.9185  16.5%     -    2s
     0     0 76378.9765    0  367 91472.0000 76378.9765  16.5%     -    2s
     0     0 76381.2739    0  370 91472.0000 76381.2739  16.5%     -    2s
     0     0 76922.0879    0  383 91472.0000 76922.0879  15.9%     -    2s
     0     0 77019.9121    0  392 91472.0000 77019.9121  15.8%     -    2s
     0     0 77059.5477    0  390 91472.0000 77059.5477  15.8%     -    2s
     0     0 77063.4352    0  390 91472.0000 77063.4352  15.8%     -    2s
     0     0 77326.3344    0  373 91472.0000 77326.3344  15.5%     -    2s
     0     0 77487.8646    0  379 91472.0000 77487.8646  15.3%     -    2s
     0     0 77503.2033    0  371 91472.0000 77503.2033  15.3%     -    2s
     0     0 77517.8483    0  389 91472.0000 77517.8483  15.3%     -    2s
     0     0 77519.0288    0  389 91472.0000 77519.0288  15.3%     -    2s
     0     0 78554.5153    0  338 91472.0000 78554.5153  14.1%     -    2s
     0     0 78706.9144    0  373 91472.0000 78706.9144  14.0%     -    2s
     0     0 78737.4407    0  371 91472.0000 78737.4407  13.9%     -    2s
     0     0 78744.3998    0  379 91472.0000 78744.3998  13.9%     -    2s
     0     0 79321.9643    0  359 91472.0000 79321.9643  13.3%     -    2s
     0     0 79493.7210    0  336 91472.0000 79493.7210  13.1%     -    3s
     0     0 79513.3892    0  362 91472.0000 79513.3892  13.1%     -    3s
     0     0 79527.8713    0  375 91472.0000 79527.8713  13.1%     -    3s
     0     0 79721.5036    0  327 91472.0000 79721.5036  12.8%     -    3s
     0     0 79721.5036    0  140 91472.0000 79721.5036  12.8%     -    3s
     0     0 79721.5036    0  252 91472.0000 79721.5036  12.8%     -    3s
     0     0 79721.5036    0  255 91472.0000 79721.5036  12.8%     -    3s
     0     0 79721.5036    0  293 91472.0000 79721.5036  12.8%     -    3s
     0     0 79878.8729    0  299 91472.0000 79878.8729  12.7%     -    3s
     0     0 80034.9050    0  303 91472.0000 80034.9050  12.5%     -    3s
     0     0 80049.3029    0  331 91472.0000 80049.3029  12.5%     -    3s
     0     0 80058.8307    0  318 91472.0000 80058.8307  12.5%     -    3s
     0     0 80059.4198    0  323 91472.0000 80059.4198  12.5%     -    3s
     0     0 81085.1899    0  315 91472.0000 81085.1899  11.4%     -    3s
     0     0 81149.0369    0  296 91472.0000 81149.0369  11.3%     -    3s
     0     0 81181.3700    0  288 91472.0000 81181.3700  11.3%     -    3s
     0     0 81182.6860    0  293 91472.0000 81182.6860  11.2%     -    3s
     0     0 81328.0115    0  324 91472.0000 81328.0115  11.1%     -    3s
H    0     0                    90722.000000 81328.0115  10.4%     -    3s
     0     0 81415.5155    0  320 90722.0000 81415.5155  10.3%     -    3s
     0     0 81433.2954    0  325 90722.0000 81433.2954  10.2%     -    3s
     0     0 81436.5235    0  332 90722.0000 81436.5235  10.2%     -    3s
     0     0 81558.7574    0  330 90722.0000 81558.7574  10.1%     -    3s
     0     0 81571.7220    0  329 90722.0000 81571.7220  10.1%     -    3s
     0     0 81655.7226    0  327 90722.0000 81655.7226  10.0%     -    3s
     0     0 81655.7226    0  300 90722.0000 81655.7226  10.0%     -    3s
     0     2 81675.4796    0  300 90722.0000 81675.4796  10.0%     -    4s
H   31    39                    84916.000000 82462.4176  2.89%   472    4s
H   72    29                    84348.000000 82462.4176  2.24%   312    4s

Cutting planes:
  Gomory: 2
  Cover: 10
  Clique: 68
  MIR: 95
  StrongCG: 50
  GUB cover: 59
  Zero half: 11
  RLT: 1

Explored 144 nodes (68497 simplex iterations) in 4.73 seconds (8.78 work units)
Thread count was 8 (of 8 available processors)

Solution count 10: 84348 84916 90722 ... 119838

Optimal solution found (tolerance 1.00e-04)
Best objective 8.434800000000e+04, best bound 8.434800000000e+04, gap 0.0000%

Gurobi 9.5.2 (mac64[arm]) logging started Thu Apr 27 19:53:19 2023

Set parameter LogFile to value "Java/output/iterative_model_full/scenario_seed_1_nJob_50_machineCount_1/mip_increment_2/log.txt"
Gurobi Optimizer version 9.5.2 build v9.5.2rc0 (mac64[arm])
Thread count: 8 physical cores, 8 logical processors, using up to 8 threads
Optimize a model with 2676 rows, 62062 columns and 705619 nonzeros
Model fingerprint: 0x4adf3c8a
Variable types: 0 continuous, 62062 integer (62062 binary)
Coefficient statistics:
  Matrix range     [1e+00, 4e+02]
  Objective range  [2e+00, 2e+07]
  Bounds range     [1e+00, 1e+00]
  RHS range        [1e+00, 1e+00]

Warning: Completing partial solution with 61908 unfixed non-continuous variables out of 62062
User MIP start produced solution with objective 54119 (0.05s)
Loaded user MIP start with objective 54119

Presolve removed 23 rows and 3568 columns
Presolve time: 0.74s
Presolved: 2653 rows, 58494 columns, 653643 nonzeros
Variable types: 0 continuous, 58494 integer (58460 binary)

Root simplex log...

Iteration    Objective       Primal Inf.    Dual Inf.      Time
   29850    2.3898138e+04   4.911740e+05   0.000000e+00      5s
   57156    2.6517783e+04   7.766967e+03   0.000000e+00     10s
   57675    2.6517935e+04   0.000000e+00   0.000000e+00     10s

Root relaxation: objective 2.651793e+04, 57675 iterations, 9.35 seconds (23.19 work units)

    Nodes    |    Current Node    |     Objective Bounds      |     Work
 Expl Unexpl |  Obj  Depth IntInf | Incumbent    BestBd   Gap | It/Node Time

     0     0 26517.9349    0  478 54119.0000 26517.9349  51.0%     -   10s
H    0     0                    53352.000000 26517.9349  50.3%     -   11s
H    0     0                    51624.000000 26627.0291  48.4%     -   15s
     0     0 26627.0291    0  759 51624.0000 26627.0291  48.4%     -   15s
H    0     0                    51606.000000 26627.0291  48.4%     -   16s
     0     0          -    0      51606.0000 26627.0291  48.4%     -   17s

Cutting planes:
  Cover: 4
  Clique: 27
  MIR: 15
  StrongCG: 13
  GUB cover: 49
  Zero half: 1
  RLT: 4

Explored 1 nodes (82845 simplex iterations) in 17.01 seconds (43.30 work units)
Thread count was 8 (of 8 available processors)

Solution count 4: 51606 51624 53352 54119 

Time limit reached
Best objective 5.160600000000e+04, best bound 2.662702910296e+04, gap 48.4032%
